p cnf 533 1246
1 0
2 0
3 0
4 0
5 0
6 0
7 0
8 0
9 0
-10 0
-11 0
-12 0
-13 0
-14 0
-15 0
-16 0
-17 0
-18 0
-19 0
20 21 0
22 21 0
23 21 0
-20 -22 -23 -21 0
-1 21 -24 0
1 -21 -24 0
24 -21 -1 0
1 21 24 0
-24 0
22 25 0
23 25 0
-22 -23 -25 0
-26 25 -27 0
26 -25 -27 0
27 -25 -26 0
26 25 27 0
-27 0
28 -23 0
23 -28 0
29 30 0
31 30 0
32 30 0
33 30 0
34 30 0
35 30 0
-36 0
-2 30 -37 0
2 -30 -37 0
37 -30 -2 0
2 30 37 0
-37 0
31 38 0
32 38 0
33 38 0
34 38 0
35 38 0
-39 0
-40 38 -41 0
40 -38 -41 0
41 -38 -40 0
40 38 41 0
-41 0
32 42 0
33 42 0
34 42 0
35 42 0
-43 0
-3 42 -44 0
3 -42 -44 0
44 -42 -3 0
3 42 44 0
-44 0
-45 42 -46 0
45 -42 -46 0
46 -42 -45 0
45 42 46 0
-46 0
-47 42 -48 0
47 -42 -48 0
48 -42 -47 0
47 42 48 0
-48 0
-49 42 -50 0
49 -42 -50 0
50 -42 -49 0
49 42 50 0
-50 0
32 51 0
33 51 0
34 51 0
35 51 0
52 51 0
-53 0
-4 51 -54 0
4 -51 -54 0
54 -51 -4 0
4 51 54 0
-54 0
55 56 0
57 56 0
58 56 0
59 56 0
60 56 0
61 56 0
-62 0
-5 56 -63 0
5 -56 -63 0
63 -56 -5 0
5 56 63 0
-63 0
57 64 0
58 64 0
59 64 0
60 64 0
61 64 0
-65 0
-66 64 -67 0
66 -64 -67 0
67 -64 -66 0
66 64 67 0
-67 0
58 68 0
59 68 0
60 68 0
61 68 0
-69 0
-70 68 -71 0
70 -68 -71 0
71 -68 -70 0
70 68 71 0
-71 0
-72 68 -73 0
72 -68 -73 0
73 -68 -72 0
72 68 73 0
-73 0
-74 68 -75 0
74 -68 -75 0
75 -68 -74 0
74 68 75 0
-75 0
-76 68 -77 0
76 -68 -77 0
77 -68 -76 0
76 68 77 0
-77 0
32 78 0
33 78 0
34 78 0
35 78 0
52 78 0
79 78 0
-80 0
-6 78 -81 0
6 -78 -81 0
81 -78 -6 0
6 78 81 0
-81 0
58 82 0
59 82 0
60 82 0
61 82 0
83 82 0
84 82 0
85 82 0
-86 0
-7 82 -87 0
7 -82 -87 0
87 -82 -7 0
7 82 87 0
-87 0
58 88 0
59 88 0
60 88 0
61 88 0
84 88 0
85 88 0
-89 0
-90 88 -91 0
90 -88 -91 0
91 -88 -90 0
90 88 91 0
-91 0
58 92 0
59 92 0
60 92 0
61 92 0
85 92 0
-93 0
-94 92 -95 0
94 -92 -95 0
95 -92 -94 0
94 92 95 0
-95 0
32 96 0
33 96 0
34 96 0
35 96 0
97 96 0
-98 0
-8 96 -99 0
8 -96 -99 0
99 -96 -8 0
8 96 99 0
-99 0
23 100 0
101 100 0
102 100 0
-23 -101 -102 -100 0
-9 100 -103 0
9 -100 -103 0
103 -100 -9 0
9 100 103 0
-103 0
23 104 0
102 104 0
-23 -102 -104 0
-105 104 -106 0
105 -104 -106 0
106 -104 -105 0
105 104 106 0
-106 0
107 108 0
109 108 0
110 108 0
111 108 0
112 108 0
113 108 0
-114 0
-10 108 -115 0
10 -108 -115 0
115 -108 -10 0
10 108 115 0
-115 0
109 116 0
110 116 0
111 116 0
112 116 0
113 116 0
-117 0
-118 116 -119 0
118 -116 -119 0
119 -116 -118 0
118 116 119 0
-119 0
110 120 0
111 120 0
112 120 0
113 120 0
-121 0
-122 120 -123 0
122 -120 -123 0
123 -120 -122 0
122 120 123 0
-123 0
-124 120 -125 0
124 -120 -125 0
125 -120 -124 0
124 120 125 0
-125 0
-126 120 -127 0
126 -120 -127 0
127 -120 -126 0
126 120 127 0
-127 0
-128 120 -129 0
128 -120 -129 0
129 -120 -128 0
128 120 129 0
-129 0
130 131 0
132 131 0
133 131 0
134 131 0
135 131 0
136 131 0
-137 0
-11 131 -138 0
11 -131 -138 0
138 -131 -11 0
11 131 138 0
-138 0
132 139 0
133 139 0
134 139 0
135 139 0
136 139 0
-140 0
-141 139 -142 0
141 -139 -142 0
142 -139 -141 0
141 139 142 0
-142 0
133 143 0
134 143 0
135 143 0
136 143 0
-144 0
-145 143 -146 0
145 -143 -146 0
146 -143 -145 0
145 143 146 0
-146 0
134 147 0
135 147 0
136 147 0
-134 -135 -136 -147 0
-148 147 -149 0
148 -147 -149 0
149 -147 -148 0
148 147 149 0
-149 0
135 150 0
136 150 0
-135 -136 -150 0
-151 150 -152 0
151 -150 -152 0
152 -150 -151 0
151 150 152 0
-152 0
-153 150 -154 0
153 -150 -154 0
154 -150 -153 0
153 150 154 0
-154 0
155 156 0
157 156 0
158 156 0
159 156 0
160 156 0
161 156 0
-162 0
-12 156 -163 0
12 -156 -163 0
163 -156 -12 0
12 156 163 0
-163 0
157 164 0
158 164 0
159 164 0
160 164 0
161 164 0
-165 0
-166 164 -167 0
166 -164 -167 0
167 -164 -166 0
166 164 167 0
-167 0
158 168 0
159 168 0
160 168 0
161 168 0
-169 0
-170 168 -171 0
170 -168 -171 0
171 -168 -170 0
170 168 171 0
-171 0
159 172 0
160 172 0
161 172 0
-159 -160 -161 -172 0
-173 172 -174 0
173 -172 -174 0
174 -172 -173 0
173 172 174 0
-174 0
-175 172 -176 0
175 -172 -176 0
176 -172 -175 0
175 172 176 0
-176 0
-177 172 -178 0
177 -172 -178 0
178 -172 -177 0
177 172 178 0
-178 0
179 180 0
181 180 0
182 180 0
183 180 0
184 180 0
185 180 0
186 180 0
187 180 0
-188 0
-13 180 -189 0
13 -180 -189 0
189 -180 -13 0
13 180 189 0
-189 0
181 190 0
182 190 0
183 190 0
184 190 0
185 190 0
186 190 0
187 190 0
-191 0
-192 190 -193 0
192 -190 -193 0
193 -190 -192 0
192 190 193 0
-193 0
182 194 0
183 194 0
184 194 0
185 194 0
186 194 0
187 194 0
-195 0
-196 194 -197 0
196 -194 -197 0
197 -194 -196 0
196 194 197 0
-197 0
183 198 0
184 198 0
185 198 0
186 198 0
187 198 0
-199 0
-200 198 -201 0
200 -198 -201 0
201 -198 -200 0
200 198 201 0
-201 0
184 202 0
185 202 0
186 202 0
187 202 0
-203 0
-204 202 -205 0
204 -202 -205 0
205 -202 -204 0
204 202 205 0
-205 0
-206 202 -207 0
206 -202 -207 0
207 -202 -206 0
206 202 207 0
-207 0
-208 202 -209 0
208 -202 -209 0
209 -202 -208 0
208 202 209 0
-209 0
-210 202 -211 0
210 -202 -211 0
211 -202 -210 0
210 202 211 0
-211 0
135 212 0
136 212 0
213 212 0
214 212 0
-215 0
-14 212 -216 0
14 -212 -216 0
216 -212 -14 0
14 212 216 0
-216 0
135 217 0
136 217 0
214 217 0
-135 -136 -214 -217 0
-218 217 -219 0
218 -217 -219 0
219 -217 -218 0
218 217 219 0
-219 0
220 221 0
222 221 0
223 221 0
224 221 0
225 221 0
-226 0
-15 221 -227 0
15 -221 -227 0
227 -221 -15 0
15 221 227 0
-227 0
222 228 0
223 228 0
224 228 0
225 228 0
-229 0
-230 228 -231 0
230 -228 -231 0
231 -228 -230 0
230 228 231 0
-231 0
223 232 0
224 232 0
225 232 0
-223 -224 -225 -232 0
-233 232 -234 0
233 -232 -234 0
234 -232 -233 0
233 232 234 0
-234 0
-235 232 -236 0
235 -232 -236 0
236 -232 -235 0
235 232 236 0
-236 0
-237 232 -238 0
237 -232 -238 0
238 -232 -237 0
237 232 238 0
-238 0
239 240 0
241 240 0
242 240 0
243 240 0
244 240 0
-245 0
-16 240 -246 0
16 -240 -246 0
246 -240 -16 0
16 240 246 0
-246 0
241 247 0
242 247 0
243 247 0
244 247 0
-248 0
-249 247 -250 0
249 -247 -250 0
250 -247 -249 0
249 247 250 0
-250 0
242 251 0
243 251 0
244 251 0
-242 -243 -244 -251 0
-252 251 -253 0
252 -251 -253 0
253 -251 -252 0
252 251 253 0
-253 0
243 254 0
244 254 0
-243 -244 -254 0
-255 254 -256 0
255 -254 -256 0
256 -254 -255 0
255 254 256 0
-256 0
-257 254 -258 0
257 -254 -258 0
258 -254 -257 0
257 254 258 0
-258 0
259 260 0
261 260 0
262 260 0
263 260 0
264 260 0
-265 0
-17 260 -266 0
17 -260 -266 0
266 -260 -17 0
17 260 266 0
-266 0
261 267 0
262 267 0
263 267 0
264 267 0
-268 0
-269 267 -270 0
269 -267 -270 0
270 -267 -269 0
269 267 270 0
-270 0
262 271 0
263 271 0
264 271 0
-262 -263 -264 -271 0
-272 271 -273 0
272 -271 -273 0
273 -271 -272 0
272 271 273 0
-273 0
-274 271 -275 0
274 -271 -275 0
275 -271 -274 0
274 271 275 0
-275 0
-276 271 -277 0
276 -271 -277 0
277 -271 -276 0
276 271 277 0
-277 0
23 278 0
102 278 0
279 278 0
280 278 0
-281 0
-18 278 -282 0
18 -278 -282 0
282 -278 -18 0
18 278 282 0
-282 0
23 283 0
102 283 0
280 283 0
-23 -102 -280 -283 0
-284 283 -285 0
284 -283 -285 0
285 -283 -284 0
284 283 285 0
-285 0
286 287 0
288 287 0
289 287 0
290 287 0
291 287 0
-292 0
-19 287 -293 0
19 -287 -293 0
293 -287 -19 0
19 287 293 0
-293 0
288 294 0
289 294 0
290 294 0
291 294 0
-295 0
-296 294 -297 0
296 -294 -297 0
297 -294 -296 0
296 294 297 0
-297 0
289 298 0
290 298 0
291 298 0
-289 -290 -291 -298 0
-299 298 -300 0
299 -298 -300 0
300 -298 -299 0
299 298 300 0
-300 0
-301 298 -302 0
301 -298 -302 0
302 -298 -301 0
301 298 302 0
-302 0
-303 298 -304 0
303 -298 -304 0
304 -298 -303 0
303 298 304 0
-304 0
305 306 0
306 -307 0
-305 307 -306 0
20 -306 0
-20 306 0
308 309 0
-310 309 0
-308 310 -309 0
22 -309 0
-22 309 0
311 312 0
312 -313 0
-311 313 -312 0
23 -312 0
-23 312 0
314 315 0
315 -316 0
-314 316 -315 0
29 -315 0
-29 315 0
317 318 0
-319 318 0
-317 319 -318 0
31 -318 0
-31 318 0
320 321 0
-322 321 0
-320 322 -321 0
32 -321 0
-32 321 0
323 324 0
324 -325 0
-323 325 -324 0
33 -324 0
-33 324 0
326 327 0
327 -328 0
-326 328 -327 0
34 -327 0
-34 327 0
329 330 0
-331 330 0
-329 331 -330 0
35 -330 0
-35 330 0
332 333 0
-334 333 0
-332 334 -333 0
52 -333 0
-52 333 0
335 336 0
-337 336 0
-335 337 -336 0
55 -336 0
-55 336 0
338 339 0
339 -340 0
-338 340 -339 0
57 -339 0
-57 339 0
341 342 0
-343 342 0
-341 343 -342 0
58 -342 0
-58 342 0
344 345 0
-346 345 0
-344 346 -345 0
59 -345 0
-59 345 0
347 348 0
348 -349 0
-347 349 -348 0
60 -348 0
-60 348 0
350 351 0
-352 351 0
-350 352 -351 0
61 -351 0
-61 351 0
353 354 0
-355 354 0
-353 355 -354 0
79 -354 0
-79 354 0
356 357 0
-358 357 0
-356 358 -357 0
83 -357 0
-83 357 0
359 360 0
-361 360 0
-359 361 -360 0
84 -360 0
-84 360 0
362 363 0
363 -364 0
-362 364 -363 0
85 -363 0
-85 363 0
365 366 0
-367 366 0
-365 367 -366 0
97 -366 0
-97 366 0
368 369 0
-370 369 0
-368 370 -369 0
101 -369 0
-101 369 0
371 372 0
-373 372 0
-371 373 -372 0
102 -372 0
-102 372 0
374 375 0
-376 375 0
-374 376 -375 0
107 -375 0
-107 375 0
377 378 0
378 -379 0
-377 379 -378 0
109 -378 0
-109 378 0
380 381 0
381 -382 0
-380 382 -381 0
110 -381 0
-110 381 0
383 384 0
384 -385 0
-383 385 -384 0
111 -384 0
-111 384 0
386 387 0
387 -388 0
-386 388 -387 0
112 -387 0
-112 387 0
389 390 0
-391 390 0
-389 391 -390 0
113 -390 0
-113 390 0
392 393 0
393 -394 0
-392 394 -393 0
130 -393 0
-130 393 0
395 396 0
-397 396 0
-395 397 -396 0
132 -396 0
-132 396 0
398 399 0
399 -400 0
-398 400 -399 0
133 -399 0
-133 399 0
401 402 0
-403 402 0
-401 403 -402 0
134 -402 0
-134 402 0
404 405 0
-406 405 0
-404 406 -405 0
135 -405 0
-135 405 0
407 408 0
-409 408 0
-407 409 -408 0
136 -408 0
-136 408 0
410 411 0
-412 411 0
-410 412 -411 0
155 -411 0
-155 411 0
413 414 0
414 -415 0
-413 415 -414 0
157 -414 0
-157 414 0
416 417 0
-418 417 0
-416 418 -417 0
158 -417 0
-158 417 0
419 420 0
-421 420 0
-419 421 -420 0
159 -420 0
-159 420 0
422 423 0
-424 423 0
-422 424 -423 0
160 -423 0
-160 423 0
425 426 0
426 -427 0
-425 427 -426 0
161 -426 0
-161 426 0
428 429 0
-430 429 0
-428 430 -429 0
179 -429 0
-179 429 0
431 432 0
-433 432 0
-431 433 -432 0
181 -432 0
-181 432 0
434 435 0
435 -436 0
-434 436 -435 0
182 -435 0
-182 435 0
437 438 0
-439 438 0
-437 439 -438 0
183 -438 0
-183 438 0
440 441 0
-442 441 0
-440 442 -441 0
184 -441 0
-184 441 0
443 444 0
444 -445 0
-443 445 -444 0
185 -444 0
-185 444 0
446 447 0
-448 447 0
-446 448 -447 0
186 -447 0
-186 447 0
449 450 0
-451 450 0
-449 451 -450 0
187 -450 0
-187 450 0
452 453 0
-454 453 0
-452 454 -453 0
213 -453 0
-213 453 0
455 456 0
-457 456 0
-455 457 -456 0
214 -456 0
-214 456 0
458 459 0
-460 459 0
-458 460 -459 0
220 -459 0
-220 459 0
461 462 0
-463 462 0
-461 463 -462 0
222 -462 0
-222 462 0
464 465 0
-466 465 0
-464 466 -465 0
223 -465 0
-223 465 0
467 468 0
-469 468 0
-467 469 -468 0
224 -468 0
-224 468 0
470 471 0
471 -472 0
-470 472 -471 0
225 -471 0
-225 471 0
473 474 0
474 -475 0
-473 475 -474 0
239 -474 0
-239 474 0
476 477 0
477 -478 0
-476 478 -477 0
241 -477 0
-241 477 0
479 480 0
-481 480 0
-479 481 -480 0
242 -480 0
-242 480 0
482 483 0
-484 483 0
-482 484 -483 0
243 -483 0
-243 483 0
485 486 0
-487 486 0
-485 487 -486 0
244 -486 0
-244 486 0
488 489 0
-490 489 0
-488 490 -489 0
259 -489 0
-259 489 0
491 492 0
-493 492 0
-491 493 -492 0
261 -492 0
-261 492 0
494 495 0
-496 495 0
-494 496 -495 0
262 -495 0
-262 495 0
497 498 0
-499 498 0
-497 499 -498 0
263 -498 0
-263 498 0
500 501 0
-502 501 0
-500 502 -501 0
264 -501 0
-264 501 0
503 504 0
-505 504 0
-503 505 -504 0
279 -504 0
-279 504 0
506 507 0
-508 507 0
-506 508 -507 0
280 -507 0
-280 507 0
509 510 0
510 -511 0
-509 511 -510 0
286 -510 0
-286 510 0
512 513 0
-514 513 0
-512 514 -513 0
288 -513 0
-288 513 0
515 516 0
-517 516 0
-515 517 -516 0
289 -516 0
-289 516 0
518 519 0
519 -520 0
-518 520 -519 0
290 -519 0
-290 519 0
521 522 0
-523 522 0
-521 523 -522 0
291 -522 0
-291 522 0
305 0
-308 0
311 0
314 0
-317 0
-320 0
323 0
326 0
-329 0
-332 0
-335 0
338 0
-341 0
-344 0
347 0
-350 0
-353 0
-356 0
-359 0
362 0
-365 0
-368 0
-371 0
374 0
377 0
380 0
383 0
386 0
-389 0
392 0
-395 0
398 0
-401 0
-404 0
407 0
-410 0
413 0
416 0
-419 0
-422 0
425 0
-428 0
-431 0
434 0
-437 0
-440 0
443 0
-446 0
449 0
452 0
455 0
-458 0
-461 0
464 0
-467 0
470 0
473 0
476 0
-479 0
482 0
-485 0
-488 0
491 0
494 0
-497 0
-500 0
-503 0
506 0
509 0
-512 0
515 0
518 0
-521 0
-524 -525 0
307 -524 0
310 -524 0
313 -524 0
316 -524 0
319 -524 0
322 -524 0
325 -524 0
328 -524 0
331 -524 0
-524 -334 0
337 -524 0
340 -524 0
343 -524 0
346 -524 0
349 -524 0
352 -524 0
-524 -355 0
358 -524 0
-524 -361 0
364 -524 0
367 -524 0
370 -524 0
-524 -373 0
-524 -376 0
379 -524 0
382 -524 0
385 -524 0
388 -524 0
-524 -391 0
394 -524 0
397 -524 0
400 -524 0
-524 -403 0
-524 -406 0
-524 -409 0
-524 -412 0
415 -524 0
-524 -418 0
-524 -421 0
-524 -424 0
427 -524 0
-524 -430 0
-524 -433 0
436 -524 0
-524 -439 0
-524 -442 0
445 -524 0
-524 -448 0
-524 -451 0
-524 -454 0
-524 -457 0
460 -524 0
463 -524 0
-524 -466 0
-524 -469 0
472 -524 0
475 -524 0
478 -524 0
-524 -481 0
-524 -484 0
487 -524 0
490 -524 0
-524 -493 0
-524 -496 0
499 -524 0
-524 -502 0
-524 -505 0
-524 -508 0
511 -524 0
-524 -514 0
-524 -517 0
520 -524 0
523 -524 0
307 -525 0
-525 -310 0
313 -525 0
316 -525 0
-525 -319 0
-525 -322 0
325 -525 0
328 -525 0
-525 -331 0
-525 -334 0
-525 -337 0
340 -525 0
-525 -343 0
-525 -346 0
349 -525 0
-525 -352 0
-525 -355 0
-525 -358 0
-525 -361 0
364 -525 0
-525 -367 0
-525 -370 0
-525 -373 0
376 -525 0
379 -525 0
382 -525 0
385 -525 0
388 -525 0
-525 -391 0
394 -525 0
-525 -397 0
400 -525 0
-525 -403 0
-525 -406 0
409 -525 0
-525 -412 0
415 -525 0
418 -525 0
-525 -421 0
-525 -424 0
427 -525 0
-525 -430 0
-525 -433 0
436 -525 0
-525 -439 0
-525 -442 0
445 -525 0
-525 -448 0
451 -525 0
454 -525 0
457 -525 0
-525 -460 0
-525 -463 0
466 -525 0
-525 -469 0
472 -525 0
475 -525 0
478 -525 0
-525 -481 0
484 -525 0
-525 -487 0
-525 -490 0
493 -525 0
496 -525 0
-525 -499 0
-525 -502 0
-525 -505 0
508 -525 0
511 -525 0
-525 -514 0
517 -525 0
520 -525 0
-525 -523 0
524 525 0
-526 0
-527 0
-528 0
-529 0
-530 0
-531 0
-532 0
-533 0
